
Gurobi 7.0.2 (win64) logging started 06/24/20 01:26:06

Read LP format model from file C:\George\Professor\Pesquisa\Orientacoes em Pos-graduacao\2019 MSC PPGCC Guilherme Figueroa\Fanjuls Solver\Results\I_150_10_S_1-99_9_MTZ_KB.lp
Reading time = 1.48 seconds
: 25820 rows, 228151 columns, 954010 nonzeros
Optimize a model with 25820 rows, 228151 columns and 954010 nonzeros
Variable types: 1651 continuous, 226500 integer (226500 binary)
Coefficient statistics:
  Matrix range     [1e+00, 2e+02]
  Objective range  [1e+00, 1e+00]
  Bounds range     [1e+00, 1e+00]
  RHS range        [1e+00, 1e+02]
Presolve time: 2.74s
Presolved: 25820 rows, 228151 columns, 954010 nonzeros
Variable types: 150 continuous, 228001 integer (228000 binary)
Found heuristic solution: objective 15723.000000
Found heuristic solution: objective 15658.000000

Root simplex log...

Iteration    Objective       Primal Inf.    Dual Inf.      Time
       0    0.0000000e+00   3.000000e+02   0.000000e+00      7s
    3820    1.4628857e-04   2.449449e+03   0.000000e+00     10s
    7088    2.2620472e-04   2.427966e+03   0.000000e+00     15s
    9037    2.5726424e-04   2.129470e+03   0.000000e+00     20s
   11597    3.1665145e-04   3.977414e+03   0.000000e+00     25s
   16814    5.5569123e-04   2.386876e+03   0.000000e+00     31s
   24022    8.7051960e+01   3.347066e+03   0.000000e+00     35s
   31063    2.0536844e+02   1.038764e+03   0.000000e+00     40s
   33921    2.1804633e+02   7.098242e+02   0.000000e+00     45s
   35693    2.2119768e+02   6.150200e+01   0.000000e+00     50s
   36646    2.2183225e+02   0.000000e+00   0.000000e+00     54s

Root relaxation: objective 2.218322e+02, 36646 iterations, 47.65 seconds
Total elapsed time = 55.43s

    Nodes    |    Current Node    |     Objective Bounds      |     Work
 Expl Unexpl |  Obj  Depth IntInf | Incumbent    BestBd   Gap | It/Node Time

     0     0  221.83225    0  452 15658.0000  221.83225  98.6%     -   55s
H    0     0                     290.0000000  221.83225  23.5%     -  112s
     0     0  222.00745    0  500  290.00000  222.00745  23.4%     -  206s
     0     0  222.00745    0  501  290.00000  222.00745  23.4%     -  208s
     0     0  223.00000    0  595  290.00000  223.00000  23.1%     -  286s
     0     0  223.00000    0  621  290.00000  223.00000  23.1%     -  289s
     0     0  223.00000    0  599  290.00000  223.00000  23.1%     -  342s
     0     0  223.00000    0  592  290.00000  223.00000  23.1%     -  343s
     0     0  223.00000    0  385  290.00000  223.00000  23.1%     -  436s
     0     0  223.00000    0  398  290.00000  223.00000  23.1%     -  438s
     0     0  223.00000    0  325  290.00000  223.00000  23.1%     -  530s
     0     0  223.00000    0  589  290.00000  223.00000  23.1%     -  677s
     0     0  223.00000    0  412  290.00000  223.00000  23.1%     -  849s
H    0     0                     269.0000000  223.00000  17.1%     -  986s
     0     0  223.00000    0  510  269.00000  223.00000  17.1%     - 1010s
     0     0  223.00000    0  290  269.00000  223.00000  17.1%     - 1153s
     0     0  223.00000    0  465  269.00000  223.00000  17.1%     - 1183s
     0     0  223.00000    0  333  269.00000  223.00000  17.1%     - 1346s
     0     0  223.00000    0  554  269.00000  223.00000  17.1%     - 1415s
     0     0  223.00000    0  449  269.00000  223.00000  17.1%     - 1518s
     0     0  223.00000    0  449  269.00000  223.00000  17.1%     - 1540s
     0     2  223.00000    0  449  269.00000  223.00000  17.1%     - 1629s
     1     3  223.00000    1  525  269.00000  223.00000  17.1%  3253 1635s
     2     4  223.00000    2  560  269.00000  223.00000  17.1%  2831 1659s
     3     5  223.00000    3  560  269.00000  223.00000  17.1%  2922 1690s
     5     7  223.00000    5  560  269.00000  223.00000  17.1%  1932 1698s
     6     8  223.00000    6  548  269.00000  223.00000  17.1%  1776 1706s
     7     9  223.02291    7  521  269.00000  223.00000  17.1%  1585 1710s
     8    10  223.07419    7  521  269.00000  223.00000  17.1%  1702 1732s
     9    11  223.35732    8  490  269.00000  223.00000  17.1%  1586 1737s
    10    12  223.51015    9  480  269.00000  223.00000  17.1%  1478 1742s
    11    13  223.64165   10  480  269.00000  223.00000  17.1%  1375 1745s
    12    14  224.22350   10  488  269.00000  223.00000  17.1%  1353 1754s
    13    15  224.37918   11  497  269.00000  223.00000  17.1%  1281 1758s
    14    16  224.60439   11  463  269.00000  223.00000  17.1%  1245 1764s
    15    17  224.79652   12  421  269.00000  223.00000  17.1%  1197 1769s
    16    18  225.42752   12  455  269.00000  223.00000  17.1%  1203 1778s
    17    19  225.49766   13  448  269.00000  223.00000  17.1%  1160 1782s
    18    20  226.05437   13  471  269.00000  223.00000  17.1%  1142 1788s
    19    21  225.60221   14  417  269.00000  223.00000  17.1%  1103 1792s
    20    22  225.70897   15  487  269.00000  223.00000  17.1%  1070 1795s

Cutting planes:
  Learned: 1
  MIR: 54
  Zero half: 3

Explored 23 nodes (189052 simplex iterations) in 1800.05 seconds
Thread count was 1 (of 12 available processors)

Solution count 4: 269 290 15658 15723 
Pool objective bound 223

Time limit reached
Best objective 2.690000000000e+02, best bound 2.230000000000e+02, gap 17.1004%
